numNurses = 189;
hours = 71;
demand = [45 14 5 25 26 15 45 29 33 34 19 5 3 3 21 44 0 26 26 23 26 5 24 0 32 13 24 20 33 27 9 7 27 26 29 37 39 22 10 14 44 3 41 23 20 24 19 28 17 11 9 15 36 22 4 32 37 6 22 32 0 38 11 17 43 6 15 45 8 24 33];
minHours = 21;
maxHours = 41;
maxConsec = 5;
maxPresence = 49;